(declare-const x Int)
(declare-const y Int)
(declare-const n Int)

(push)
(assert (not  ( => ( not ( < n 0 ) ) (= 1 1) )  ))
(check-sat)
(get-model)
(pop)
(push)
(assert (not  ( and ( => ( not ( < y n ) ) ( and ( not ( < n ( - x 1 ) ) ) ( < n ( + ( - x 1 ) 1 ) ) ) ) ( => ( < y n ) (= 1 1) ) )  ))
(check-sat)
(get-model)
(pop)